
  12    4
  10   10   10   10

   0   0   0   0   0   5 2 3 4 5 11 
   9  10  10  10  10   3 10 8 6 
   4  10  10  10  10   3 10 9 8 
   4  10  10  10  10   1 6 
   9  10  10  10  10   1 7 
   4  10  10  10  10   1 9 
   5  10  10  10  10   1 8 
   2  10  10  10  10   1 12
   3  10  10  10  10   1 12
  10  10  10  10  10   1 12
   6  10  10  10  10   1 12
   0   0   0   0   0   0 
